NAME : in_house_9_16
TYPE : TSP
DIMENSION : 9
EDGE_WEIGHT_TYPE : EXPLICIT
EDGE_WEIGHT_FORMAT : UPPER_ROW
COMMENT : INVERSION_SHIFT=2
EDGE_WEIGHT_SECTION
10
71
21
60
20
17
47
44
55
21
57
16
22
59
49
1
80
6
79
20
36
14
32
50
66
38
6
53
13
24
18
58
72
3
45
28
